param set_len = 42;
param target_sum = 11509811032;
param values := [1] 877621390 [2] 824418173 [3] 865163210 [4] 1019425437 [5] 94903923 [6] 882501230 [7] 69353168 [8] 400833715 [9] 171196859 [10] 536703593 [11] 941958116 [12] 863233012 [13] 561354651 [14] 814518164 [15] 257403910 [16] 799633536 [17] 911464163 [18] 281417197 [19] 58661076 [20] 1046724780 [21] 1052807885 [22] 944894749 [23] 496160291 [24] 272527007 [25] 776059416 [26] 715286994 [27] 687209137 [28] 474327431 [29] 912326628 [30] 694221126 [31] 665692623 [32] 541555933 [33] 473074658 [34] 879943255 [35] 454452325 [36] 484746112 [37] 633618249 [38] 258550031 [39] 383348963 [40] 22293384 [41] 74472610 [42] 219364688 ;
